min: c;

c = 3.62518248732486 * u4_t1_h1 + 3.58558542756528 * u4_t1_h2 + 2.80602645932525 * u4_t1_h3 + 2.79709974069074 * u4_t1_h4 + 2.79709974069074 * u4_t10_h4 + 3.651345248297 * u4_t1_h5 + 3.651345248297 * u4_t10_h5 + 3.69000658662899 * u4_t1_h6 + 3.69000658662899 * u4_t10_h6 + 4.39126149261543 * u4_t1_h7 + 4.39126149261543 * u4_t10_h7 + 5.24557133014845 * u4_t1_h8 + 5.24557133014845 * u4_t9_h8 + 5.24557133014845 * u4_t10_h8 + 5.36612983498387 * u4_t9_h9 + 5.36612983498387 * u4_t10_h9 + 5.35544979938682 * u4_t9_h10 + 5.35544979938682 * u4_t10_h10 + 3.68051548172425 * u4_t2_h11 + 3.68051548172425 * u4_t4_h11 + 3.68051548172425 * u4_t9_h11 + 3.68051548172425 * u4_t10_h11 + 6.34871020633966 * u4_t2_h12 + 6.34871020633966 * u4_t3_h12 + 6.34871020633966 * u4_t4_h12 + 6.34871020633966 * u4_t8_h12 + 6.34871020633966 * u4_t9_h12 + 6.34871020633966 * u4_t10_h12 + 4.90248327356746 * u4_t2_h13 + 4.90248327356746 * u4_t3_h13 + 4.90248327356746 * u4_t4_h13 + 4.90248327356746 * u4_t8_h13 + 4.90248327356746 * u4_t9_h13 + 5.47496328048363 * u4_t2_h14 + 5.47496328048363 * u4_t3_h14 + 5.47496328048363 * u4_t4_h14 + 5.47496328048363 * u4_t8_h14 + 5.47496328048363 * u4_t9_h14 + 6.19391234782061 * u4_t2_h15 + 6.19391234782061 * u4_t3_h15 + 6.19391234782061 * u4_t4_h15 + 6.19391234782061 * u4_t8_h15 + 6.19391234782061 * u4_t9_h15 + 5.45664070269905 * u4_t2_h16 + 5.45664070269905 * u4_t3_h16 + 5.45664070269905 * u4_t4_h16 + 5.45664070269905 * u4_t5_h16 + 5.45664070269905 * u4_t8_h16 + 5.45664070269905 * u4_t9_h16 + 6.36839496430016 * u4_t2_h17 + 6.36839496430016 * u4_t3_h17 + 6.36839496430016 * u4_t5_h17 + 6.36839496430016 * u4_t8_h17 + 6.36839496430016 * u4_t9_h17 + 6.81412967091106 * u4_t2_h18 + 6.81412967091106 * u4_t3_h18 + 6.81412967091106 * u4_t5_h18 + 6.81412967091106 * u4_t8_h18 + 6.81412967091106 * u4_t9_h18 + 5.70205554164985 * u4_t2_h19 + 5.70205554164985 * u4_t3_h19 + 5.70205554164985 * u4_t6_h19 + 5.70205554164985 * u4_t8_h19 + 5.70205554164985 * u4_t9_h19 + 5.14639728704968 * u4_t2_h20 + 5.14639728704968 * u4_t6_h20 + 5.14639728704968 * u4_t9_h20 + 5.5626135953505 * u4_t6_h21 + 5.16326535520788 * u4_t6_h22 + 5.16326535520788 * u4_t7_h22 + 5.93120402290145 * u4_t6_h23 + 5.93120402290145 * u4_t7_h23;
0 <= u4_t1_h1 <= 1;
0 <= u4_t1_h2 <= 1;
0 <= u4_t1_h3 <= 1;
0 <= u4_t1_h4 <= 1;
0 <= u4_t1_h5 <= 1;
0 <= u4_t1_h6 <= 1;
0 <= u4_t1_h7 <= 1;
0 <= u4_t1_h8 <= 1;
u4_t1_h1 + u4_t1_h2 + u4_t1_h3 + u4_t1_h4 + u4_t1_h5 + u4_t1_h6 + u4_t1_h7 + u4_t1_h8 = 1;
0 <= u4_t2_h11 <= 1;
0 <= u4_t2_h12 <= 1;
0 <= u4_t2_h13 <= 1;
0 <= u4_t2_h14 <= 1;
0 <= u4_t2_h15 <= 1;
0 <= u4_t2_h16 <= 1;
0 <= u4_t2_h17 <= 1;
0 <= u4_t2_h18 <= 1;
0 <= u4_t2_h19 <= 1;
0 <= u4_t2_h20 <= 1;
u4_t2_h11 + u4_t2_h12 + u4_t2_h13 + u4_t2_h14 + u4_t2_h15 + u4_t2_h16 + u4_t2_h17 + u4_t2_h18 + u4_t2_h19 + u4_t2_h20 = 2;
0 <= u4_t3_h12 <= 1;
0 <= u4_t3_h13 <= 1;
0 <= u4_t3_h14 <= 1;
0 <= u4_t3_h15 <= 1;
0 <= u4_t3_h16 <= 1;
0 <= u4_t3_h17 <= 1;
0 <= u4_t3_h18 <= 1;
0 <= u4_t3_h19 <= 1;
u4_t3_h12 + u4_t3_h13 + u4_t3_h14 + u4_t3_h15 + u4_t3_h16 + u4_t3_h17 + u4_t3_h18 + u4_t3_h19 = 3;
0 <= u4_t4_h11 <= 1;
0 <= u4_t4_h12 <= 1;
0 <= u4_t4_h13 <= 1;
0 <= u4_t4_h14 <= 1;
0 <= u4_t4_h15 <= 1;
0 <= u4_t4_h16 <= 1;
u4_t4_h11 + u4_t4_h12 + u4_t4_h13 + u4_t4_h14 + u4_t4_h15 + u4_t4_h16 = 3;
0 <= u4_t5_h16 <= 1;
0 <= u4_t5_h17 <= 1;
0 <= u4_t5_h18 <= 1;
u4_t5_h16 + u4_t5_h17 + u4_t5_h18 = 1;
0 <= u4_t6_h19 <= 1;
0 <= u4_t6_h20 <= 1;
0 <= u4_t6_h21 <= 1;
0 <= u4_t6_h22 <= 1;
0 <= u4_t6_h23 <= 1;
u4_t6_h19 + u4_t6_h20 + u4_t6_h21 + u4_t6_h22 + u4_t6_h23 = 3;
0 <= u4_t7_h22 <= 1;
0 <= u4_t7_h23 <= 1;
u4_t7_h22 + u4_t7_h23 = 1;
0 <= u4_t8_h12 <= 1;
0 <= u4_t8_h13 <= 1;
0 <= u4_t8_h14 <= 1;
0 <= u4_t8_h15 <= 1;
0 <= u4_t8_h16 <= 1;
0 <= u4_t8_h17 <= 1;
0 <= u4_t8_h18 <= 1;
0 <= u4_t8_h19 <= 1;
u4_t8_h12 + u4_t8_h13 + u4_t8_h14 + u4_t8_h15 + u4_t8_h16 + u4_t8_h17 + u4_t8_h18 + u4_t8_h19 = 2;
0 <= u4_t9_h8 <= 1;
0 <= u4_t9_h9 <= 1;
0 <= u4_t9_h10 <= 1;
0 <= u4_t9_h11 <= 1;
0 <= u4_t9_h12 <= 1;
0 <= u4_t9_h13 <= 1;
0 <= u4_t9_h14 <= 1;
0 <= u4_t9_h15 <= 1;
0 <= u4_t9_h16 <= 1;
0 <= u4_t9_h17 <= 1;
0 <= u4_t9_h18 <= 1;
0 <= u4_t9_h19 <= 1;
0 <= u4_t9_h20 <= 1;
u4_t9_h8 + u4_t9_h9 + u4_t9_h10 + u4_t9_h11 + u4_t9_h12 + u4_t9_h13 + u4_t9_h14 + u4_t9_h15 + u4_t9_h16 + u4_t9_h17 + u4_t9_h18 + u4_t9_h19 + u4_t9_h20 = 2;
0 <= u4_t10_h4 <= 1;
0 <= u4_t10_h5 <= 1;
0 <= u4_t10_h6 <= 1;
0 <= u4_t10_h7 <= 1;
0 <= u4_t10_h8 <= 1;
0 <= u4_t10_h9 <= 1;
0 <= u4_t10_h10 <= 1;
0 <= u4_t10_h11 <= 1;
0 <= u4_t10_h12 <= 1;
u4_t10_h4 + u4_t10_h5 + u4_t10_h6 + u4_t10_h7 + u4_t10_h8 + u4_t10_h9 + u4_t10_h10 + u4_t10_h11 + u4_t10_h12 = 2;
